474,374
533,429
769,527
894,514
823,360
576,261
947,213
769,527
658,554
382,818
468,514
765,490
823,360
760,-97
427,152
448,173
474,374
441,528
468,514
533,429
705,423
653,415
596,433
699,524
999,724
789,619
956,681
732,731
625,761
658,554
254,623
482,342
448,173
702,427
771,406
738,388
653,415
356,457
